%%%mzn-stat: initTime=0.012194283
%%%mzn-stat: objective=395
%%%mzn-stat: nodes=20109
%%%mzn-stat: restarts=12
%%%mzn-stat: peakDepth=546
%%%mzn-stat: solveTime=3.438312186
%%%mzn-stat: variables=1117
%%%mzn-stat: propagators=2038
%%%mzn-stat: failures=12329
%%%mzn-stat: propagations=3210385
%%%mzn-stat: nogoods=12329
%%%mzn-stat: AverageConflictSize=17.209992700137885
%%%mzn-stat: NumUnitNogoodsLearned=201
%%%mzn-stat: AverageLearnedNogoodLength=55.31924730310649
%%%mzn-stat: AverageBacktrackAmount=0
%%%mzn-stat: AverageLbd=11.06431989617974
%%%mzn-stat-end
maxleg = 395;
succ = array1d(1..50,[32, 20, 30, 13, 14, 43, 19, 47, 10, 23, 18, 17, 42, 7, 31, 37, 3, 46, 35, 1, 49, 16, 22, 12, 4, 25, 29, 24, 5, 48, 38, 41, 2, 45, 50, 33, 21, 11, 15, 8, 28, 27, 44, 40, 6, 9, 36, 39, 26, 34]);
% time elapsed: 4.69 s
----------
%%%mzn-stat: initTime=0.012194283
%%%mzn-stat: objective=348
%%%mzn-stat: nodes=22130
%%%mzn-stat: restarts=14
%%%mzn-stat: peakDepth=546
%%%mzn-stat: solveTime=3.764006963
%%%mzn-stat: variables=1117
%%%mzn-stat: propagators=2038
%%%mzn-stat: failures=13032
%%%mzn-stat: propagations=3409525
%%%mzn-stat: nogoods=13032
%%%mzn-stat: AverageConflictSize=17.19490484960098
%%%mzn-stat: NumUnitNogoodsLearned=201
%%%mzn-stat: AverageLearnedNogoodLength=55.676488643339475
%%%mzn-stat: AverageBacktrackAmount=0
%%%mzn-stat: AverageLbd=11.005448127685696
%%%mzn-stat-end
maxleg = 348;
succ = array1d(1..50,[32, 20, 30, 13, 14, 43, 19, 47, 10, 22, 18, 17, 42, 7, 31, 37, 3, 27, 46, 1, 49, 16, 9, 12, 4, 25, 29, 24, 5, 48, 38, 41, 2, 45, 50, 33, 21, 23, 15, 8, 28, 11, 44, 40, 6, 35, 36, 39, 26, 34]);
% time elapsed: 5.00 s
----------
%%%mzn-stat: initTime=0.012194283
%%%mzn-stat: objective=341
%%%mzn-stat: nodes=27591
%%%mzn-stat: restarts=21
%%%mzn-stat: peakDepth=559
%%%mzn-stat: solveTime=5.021619793
%%%mzn-stat: variables=1117
%%%mzn-stat: propagators=2038
%%%mzn-stat: failures=15765
%%%mzn-stat: propagations=4114394
%%%mzn-stat: nogoods=15765
%%%mzn-stat: AverageConflictSize=19.34012052013955
%%%mzn-stat: NumUnitNogoodsLearned=201
%%%mzn-stat: AverageLearnedNogoodLength=61.315509039010465
%%%mzn-stat: AverageBacktrackAmount=0
%%%mzn-stat: AverageLbd=10.841230574056453
%%%mzn-stat-end
maxleg = 341;
succ = array1d(1..50,[32, 20, 30, 29, 14, 43, 19, 47, 10, 22, 18, 17, 42, 7, 31, 37, 3, 27, 46, 1, 49, 16, 9, 12, 4, 25, 13, 24, 11, 48, 38, 41, 2, 45, 50, 33, 21, 23, 15, 8, 28, 5, 44, 40, 6, 35, 36, 39, 26, 34]);
% time elapsed: 6.26 s
----------
%%%mzn-stat: initTime=0.012194283
%%%mzn-stat: objective=337
%%%mzn-stat: nodes=28387
%%%mzn-stat: restarts=22
%%%mzn-stat: peakDepth=574
%%%mzn-stat: solveTime=5.051096082
%%%mzn-stat: variables=1117
%%%mzn-stat: propagators=2038
%%%mzn-stat: failures=15800
%%%mzn-stat: propagations=4132724
%%%mzn-stat: nogoods=15800
%%%mzn-stat: AverageConflictSize=19.3353164556962
%%%mzn-stat: NumUnitNogoodsLearned=201
%%%mzn-stat: AverageLearnedNogoodLength=61.3253164556962
%%%mzn-stat: AverageBacktrackAmount=0
%%%mzn-stat: AverageLbd=10.839240506329114
%%%mzn-stat-end
maxleg = 337;
succ = array1d(1..50,[32, 20, 30, 29, 14, 43, 19, 47, 10, 22, 13, 17, 42, 7, 31, 37, 3, 27, 46, 1, 49, 16, 9, 12, 4, 25, 11, 24, 18, 48, 38, 41, 2, 45, 50, 33, 21, 23, 15, 8, 28, 5, 44, 40, 6, 35, 36, 39, 26, 34]);
% time elapsed: 6.30 s
----------
%%%mzn-stat: initTime=0.012194283
%%%mzn-stat: objective=313
%%%mzn-stat: nodes=30433
%%%mzn-stat: restarts=24
%%%mzn-stat: peakDepth=574
%%%mzn-stat: solveTime=5.573382534
%%%mzn-stat: variables=1117
%%%mzn-stat: propagators=2038
%%%mzn-stat: failures=16923
%%%mzn-stat: propagations=4405331
%%%mzn-stat: nogoods=16923
%%%mzn-stat: AverageConflictSize=19.903740471547597
%%%mzn-stat: NumUnitNogoodsLearned=201
%%%mzn-stat: AverageLearnedNogoodLength=63.6020209182769
%%%mzn-stat: AverageBacktrackAmount=0
%%%mzn-stat: AverageLbd=10.822371919872364
%%%mzn-stat-end
maxleg = 313;
succ = array1d(1..50,[32, 20, 30, 23, 14, 43, 44, 47, 19, 22, 13, 17, 10, 7, 31, 37, 3, 27, 46, 1, 36, 9, 5, 12, 4, 25, 11, 24, 42, 48, 38, 41, 2, 45, 50, 33, 21, 29, 15, 16, 28, 18, 8, 40, 6, 35, 49, 39, 26, 34]);
% time elapsed: 6.82 s
----------
%%%mzn-stat: initTime=0.012194283
%%%mzn-stat: objective=312
%%%mzn-stat: nodes=31744
%%%mzn-stat: restarts=27
%%%mzn-stat: peakDepth=574
%%%mzn-stat: solveTime=5.649037406
%%%mzn-stat: variables=1117
%%%mzn-stat: propagators=2038
%%%mzn-stat: failures=17108
%%%mzn-stat: propagations=4469376
%%%mzn-stat: nogoods=17108
%%%mzn-stat: AverageConflictSize=19.793371522094926
%%%mzn-stat: NumUnitNogoodsLearned=201
%%%mzn-stat: AverageLearnedNogoodLength=63.35913023147066
%%%mzn-stat: AverageBacktrackAmount=0
%%%mzn-stat: AverageLbd=10.884907645545944
%%%mzn-stat-end
maxleg = 312;
succ = array1d(1..50,[32, 20, 30, 23, 14, 8, 43, 47, 19, 22, 13, 17, 10, 44, 31, 37, 3, 27, 46, 1, 36, 9, 5, 12, 4, 25, 11, 24, 42, 48, 38, 41, 2, 45, 50, 33, 21, 29, 15, 16, 28, 18, 6, 40, 7, 35, 49, 39, 26, 34]);
% time elapsed: 6.90 s
----------
%%%mzn-stat: initTime=0.012194283
%%%mzn-stat: objective=311
%%%mzn-stat: nodes=32356
%%%mzn-stat: restarts=28
%%%mzn-stat: peakDepth=574
%%%mzn-stat: solveTime=5.667745
%%%mzn-stat: variables=1117
%%%mzn-stat: propagators=2038
%%%mzn-stat: failures=17122
%%%mzn-stat: propagations=4480233
%%%mzn-stat: nogoods=17122
%%%mzn-stat: AverageConflictSize=19.787700035042636
%%%mzn-stat: NumUnitNogoodsLearned=201
%%%mzn-stat: AverageLearnedNogoodLength=63.34119845812405
%%%mzn-stat: AverageBacktrackAmount=0
%%%mzn-stat: AverageLbd=10.88289919401939
%%%mzn-stat-end
maxleg = 311;
succ = array1d(1..50,[32, 20, 30, 23, 14, 8, 43, 47, 19, 22, 18, 17, 10, 44, 31, 37, 3, 27, 46, 1, 36, 9, 5, 12, 4, 25, 42, 24, 11, 48, 38, 41, 2, 45, 50, 33, 21, 29, 15, 16, 28, 13, 6, 40, 7, 35, 49, 39, 26, 34]);
% time elapsed: 6.92 s
----------
%%%mzn-stat: initTime=0.012194283
%%%mzn-stat: objective=310
%%%mzn-stat: nodes=33201
%%%mzn-stat: restarts=29
%%%mzn-stat: peakDepth=574
%%%mzn-stat: solveTime=5.736288746
%%%mzn-stat: variables=1117
%%%mzn-stat: propagators=2038
%%%mzn-stat: failures=17322
%%%mzn-stat: propagations=4528832
%%%mzn-stat: nogoods=17322
%%%mzn-stat: AverageConflictSize=19.70188199976908
%%%mzn-stat: NumUnitNogoodsLearned=201
%%%mzn-stat: AverageLearnedNogoodLength=63.0562868029096
%%%mzn-stat: AverageBacktrackAmount=0
%%%mzn-stat: AverageLbd=10.869472347304006
%%%mzn-stat-end
maxleg = 310;
succ = array1d(1..50,[32, 20, 30, 23, 14, 8, 43, 47, 19, 22, 18, 17, 10, 44, 31, 37, 3, 27, 46, 1, 36, 9, 5, 12, 4, 25, 42, 24, 11, 48, 38, 41, 2, 45, 50, 33, 21, 29, 15, 16, 28, 13, 6, 40, 7, 35, 49, 39, 26, 34]);
% time elapsed: 6.99 s
----------
%%%mzn-stat: initTime=0.012194283
%%%mzn-stat: objective=309
%%%mzn-stat: nodes=33907
%%%mzn-stat: restarts=30
%%%mzn-stat: peakDepth=574
%%%mzn-stat: solveTime=5.787984761
%%%mzn-stat: variables=1117
%%%mzn-stat: propagators=2038
%%%mzn-stat: failures=17409
%%%mzn-stat: propagations=4554619
%%%mzn-stat: nogoods=17409
%%%mzn-stat: AverageConflictSize=19.696019300361883
%%%mzn-stat: NumUnitNogoodsLearned=201
%%%mzn-stat: AverageLearnedNogoodLength=63.14848641507266
%%%mzn-stat: AverageBacktrackAmount=0
%%%mzn-stat: AverageLbd=10.879487621345282
%%%mzn-stat-end
maxleg = 309;
succ = array1d(1..50,[32, 20, 30, 23, 14, 8, 43, 47, 19, 22, 18, 17, 10, 44, 31, 37, 3, 27, 46, 1, 36, 9, 5, 12, 4, 25, 42, 24, 11, 48, 38, 41, 2, 45, 50, 33, 21, 29, 15, 16, 28, 13, 6, 40, 7, 35, 49, 39, 26, 34]);
% time elapsed: 7.04 s
----------
%%%mzn-stat: initTime=0.012194283
%%%mzn-stat: objective=308
%%%mzn-stat: nodes=35374
%%%mzn-stat: restarts=31
%%%mzn-stat: peakDepth=574
%%%mzn-stat: solveTime=6.106115846
%%%mzn-stat: variables=1117
%%%mzn-stat: propagators=2038
%%%mzn-stat: failures=17999
%%%mzn-stat: propagations=4719932
%%%mzn-stat: nogoods=17999
%%%mzn-stat: AverageConflictSize=20.02511250625035
%%%mzn-stat: NumUnitNogoodsLearned=201
%%%mzn-stat: AverageLearnedNogoodLength=64.37096505361409
%%%mzn-stat: AverageBacktrackAmount=0
%%%mzn-stat: AverageLbd=10.903772431801766
%%%mzn-stat-end
maxleg = 308;
succ = array1d(1..50,[32, 20, 30, 23, 14, 8, 43, 47, 19, 22, 18, 17, 10, 44, 31, 37, 3, 27, 46, 1, 36, 9, 5, 12, 4, 25, 42, 24, 11, 48, 38, 41, 2, 45, 50, 33, 21, 29, 15, 16, 28, 13, 6, 40, 7, 35, 49, 39, 26, 34]);
% time elapsed: 7.37 s
----------
%%%mzn-stat: initTime=0.012194283
%%%mzn-stat: objective=307
%%%mzn-stat: nodes=36845
%%%mzn-stat: restarts=32
%%%mzn-stat: peakDepth=574
%%%mzn-stat: solveTime=6.456330048
%%%mzn-stat: variables=1117
%%%mzn-stat: propagators=2038
%%%mzn-stat: failures=18632
%%%mzn-stat: propagations=4868461
%%%mzn-stat: nogoods=18632
%%%mzn-stat: AverageConflictSize=20.524581365392873
%%%mzn-stat: NumUnitNogoodsLearned=201
%%%mzn-stat: AverageLearnedNogoodLength=65.74414984972091
%%%mzn-stat: AverageBacktrackAmount=0
%%%mzn-stat: AverageLbd=10.895878059252897
%%%mzn-stat-end
maxleg = 307;
succ = array1d(1..50,[32, 20, 30, 23, 14, 8, 43, 47, 19, 22, 18, 17, 10, 44, 31, 37, 3, 27, 46, 1, 36, 9, 5, 12, 4, 25, 42, 24, 11, 48, 38, 41, 2, 45, 50, 33, 21, 29, 15, 16, 28, 13, 6, 40, 7, 35, 49, 39, 26, 34]);
% time elapsed: 7.72 s
----------
%%%mzn-stat: initTime=0.012194283
%%%mzn-stat: objective=306
%%%mzn-stat: nodes=40554
%%%mzn-stat: restarts=33
%%%mzn-stat: peakDepth=574
%%%mzn-stat: solveTime=6.999958872
%%%mzn-stat: variables=1117
%%%mzn-stat: propagators=2038
%%%mzn-stat: failures=21299
%%%mzn-stat: propagations=5639420
%%%mzn-stat: nogoods=21299
%%%mzn-stat: AverageConflictSize=19.271937649654912
%%%mzn-stat: NumUnitNogoodsLearned=201
%%%mzn-stat: AverageLearnedNogoodLength=61.20822573829757
%%%mzn-stat: AverageBacktrackAmount=0
%%%mzn-stat: AverageLbd=10.571763932578994
%%%mzn-stat-end
maxleg = 306;
succ = array1d(1..50,[32, 20, 30, 23, 14, 8, 43, 47, 19, 22, 18, 17, 10, 44, 31, 37, 3, 27, 46, 1, 36, 9, 5, 12, 4, 25, 42, 24, 11, 48, 38, 41, 2, 45, 50, 33, 21, 29, 15, 16, 28, 13, 6, 40, 7, 35, 49, 39, 26, 34]);
% time elapsed: 8.27 s
----------
%%%mzn-stat: initTime=0.012194283
%%%mzn-stat: objective=298
%%%mzn-stat: nodes=41368
%%%mzn-stat: restarts=34
%%%mzn-stat: peakDepth=574
%%%mzn-stat: solveTime=7.049778951
%%%mzn-stat: variables=1117
%%%mzn-stat: propagators=2038
%%%mzn-stat: failures=21394
%%%mzn-stat: propagations=5670557
%%%mzn-stat: nogoods=21394
%%%mzn-stat: AverageConflictSize=19.31920164532112
%%%mzn-stat: NumUnitNogoodsLearned=201
%%%mzn-stat: AverageLearnedNogoodLength=61.31036739272693
%%%mzn-stat: AverageBacktrackAmount=0
%%%mzn-stat: AverageLbd=10.58726745816584
%%%mzn-stat-end
maxleg = 298;
succ = array1d(1..50,[32, 20, 30, 38, 14, 49, 43, 6, 19, 22, 18, 17, 10, 46, 31, 37, 3, 27, 23, 1, 36, 9, 5, 12, 4, 25, 42, 24, 11, 48, 26, 41, 2, 45, 50, 33, 8, 29, 15, 16, 28, 13, 44, 40, 7, 35, 21, 39, 47, 34]);
% time elapsed: 8.32 s
----------
%%%mzn-stat: initTime=0.012194283
%%%mzn-stat: objective=297
%%%mzn-stat: nodes=44146
%%%mzn-stat: restarts=36
%%%mzn-stat: peakDepth=574
%%%mzn-stat: solveTime=7.483567337
%%%mzn-stat: variables=1117
%%%mzn-stat: propagators=2038
%%%mzn-stat: failures=23092
%%%mzn-stat: propagations=6041045
%%%mzn-stat: nogoods=23092
%%%mzn-stat: AverageConflictSize=19.15083145678157
%%%mzn-stat: NumUnitNogoodsLearned=201
%%%mzn-stat: AverageLearnedNogoodLength=59.77035336913217
%%%mzn-stat: AverageBacktrackAmount=0
%%%mzn-stat: AverageLbd=10.42339338298978
%%%mzn-stat-end
maxleg = 297;
succ = array1d(1..50,[32, 26, 30, 38, 14, 49, 43, 6, 19, 22, 18, 17, 10, 46, 31, 37, 3, 27, 23, 1, 36, 9, 5, 12, 16, 25, 42, 24, 11, 48, 4, 41, 2, 45, 50, 33, 20, 29, 15, 8, 28, 13, 44, 40, 7, 35, 21, 39, 47, 34]);
% time elapsed: 8.75 s
----------
%%%mzn-stat: initTime=0.012194283
%%%mzn-stat: objective=294
%%%mzn-stat: nodes=45401
%%%mzn-stat: restarts=39
%%%mzn-stat: peakDepth=574
%%%mzn-stat: solveTime=7.563471265
%%%mzn-stat: variables=1117
%%%mzn-stat: propagators=2038
%%%mzn-stat: failures=23265
%%%mzn-stat: propagations=6093538
%%%mzn-stat: nogoods=23265
%%%mzn-stat: AverageConflictSize=19.150612508059318
%%%mzn-stat: NumUnitNogoodsLearned=201
%%%mzn-stat: AverageLearnedNogoodLength=59.79785084891468
%%%mzn-stat: AverageBacktrackAmount=0
%%%mzn-stat: AverageLbd=10.441521598968407
%%%mzn-stat-end
maxleg = 294;
succ = array1d(1..50,[32, 26, 30, 38, 14, 49, 43, 6, 19, 22, 18, 17, 10, 46, 31, 36, 3, 27, 23, 1, 37, 9, 5, 12, 20, 25, 42, 24, 11, 48, 4, 41, 2, 45, 50, 33, 16, 29, 15, 8, 28, 13, 44, 40, 7, 35, 21, 39, 47, 34]);
% time elapsed: 8.84 s
----------
%%%mzn-stat: initTime=0.012194283
%%%mzn-stat: objective=288
%%%mzn-stat: nodes=46510
%%%mzn-stat: restarts=41
%%%mzn-stat: peakDepth=574
%%%mzn-stat: solveTime=7.63225482
%%%mzn-stat: variables=1117
%%%mzn-stat: propagators=2038
%%%mzn-stat: failures=23461
%%%mzn-stat: propagations=6137328
%%%mzn-stat: nogoods=23461
%%%mzn-stat: AverageConflictSize=19.136652316610544
%%%mzn-stat: NumUnitNogoodsLearned=201
%%%mzn-stat: AverageLearnedNogoodLength=59.69916030859725
%%%mzn-stat: AverageBacktrackAmount=0
%%%mzn-stat: AverageLbd=10.45194151996931
%%%mzn-stat-end
maxleg = 288;
succ = array1d(1..50,[32, 25, 30, 38, 9, 49, 43, 26, 19, 23, 18, 17, 10, 46, 31, 36, 3, 27, 34, 22, 37, 6, 5, 12, 20, 2, 42, 24, 11, 48, 4, 41, 1, 45, 50, 33, 16, 29, 15, 8, 28, 13, 44, 40, 14, 35, 21, 39, 47, 7]);
% time elapsed: 8.91 s
----------
%%%mzn-stat: initTime=0.012194283
%%%mzn-stat: objective=287
%%%mzn-stat: nodes=48360
%%%mzn-stat: restarts=42
%%%mzn-stat: peakDepth=574
%%%mzn-stat: solveTime=8.211072183
%%%mzn-stat: variables=1117
%%%mzn-stat: propagators=2038
%%%mzn-stat: failures=24492
%%%mzn-stat: propagations=6340536
%%%mzn-stat: nogoods=24492
%%%mzn-stat: AverageConflictSize=20.239302629430018
%%%mzn-stat: NumUnitNogoodsLearned=201
%%%mzn-stat: AverageLearnedNogoodLength=62.75649191572759
%%%mzn-stat: AverageBacktrackAmount=0
%%%mzn-stat: AverageLbd=10.447043932712722
%%%mzn-stat-end
maxleg = 287;
succ = array1d(1..50,[32, 25, 30, 38, 9, 49, 43, 26, 19, 23, 18, 17, 10, 46, 31, 36, 3, 27, 34, 22, 37, 6, 5, 12, 20, 2, 42, 24, 11, 48, 4, 41, 1, 45, 50, 33, 16, 29, 15, 8, 28, 13, 44, 40, 14, 35, 21, 39, 47, 7]);
% time elapsed: 9.49 s
----------
%%%mzn-stat: initTime=0.012194283
%%%mzn-stat: objective=282
%%%mzn-stat: nodes=51491
%%%mzn-stat: restarts=46
%%%mzn-stat: peakDepth=574
%%%mzn-stat: solveTime=8.989915873
%%%mzn-stat: variables=1117
%%%mzn-stat: propagators=2038
%%%mzn-stat: failures=25954
%%%mzn-stat: propagations=6666090
%%%mzn-stat: nogoods=25954
%%%mzn-stat: AverageConflictSize=21.283193342066735
%%%mzn-stat: NumUnitNogoodsLearned=201
%%%mzn-stat: AverageLearnedNogoodLength=65.03194112660861
%%%mzn-stat: AverageBacktrackAmount=0
%%%mzn-stat: AverageLbd=10.44586576250289
%%%mzn-stat-end
maxleg = 282;
succ = array1d(1..50,[32, 25, 30, 29, 9, 49, 43, 6, 19, 23, 18, 17, 10, 46, 26, 36, 3, 27, 34, 22, 37, 31, 5, 12, 20, 2, 42, 24, 11, 48, 38, 41, 1, 45, 50, 33, 16, 4, 15, 8, 28, 13, 44, 40, 14, 35, 21, 39, 47, 7]);
% time elapsed: 10.27 s
----------
%%%mzn-stat: initTime=0.012194283
%%%mzn-stat: objective=281
%%%mzn-stat: nodes=53503
%%%mzn-stat: restarts=51
%%%mzn-stat: peakDepth=574
%%%mzn-stat: solveTime=9.162667689
%%%mzn-stat: variables=1117
%%%mzn-stat: propagators=2038
%%%mzn-stat: failures=26395
%%%mzn-stat: propagations=6785619
%%%mzn-stat: nogoods=26395
%%%mzn-stat: AverageConflictSize=21.201439666603523
%%%mzn-stat: NumUnitNogoodsLearned=201
%%%mzn-stat: AverageLearnedNogoodLength=64.7974616404622
%%%mzn-stat: AverageBacktrackAmount=0
%%%mzn-stat: AverageLbd=10.479825724569046
%%%mzn-stat-end
maxleg = 281;
succ = array1d(1..50,[32, 25, 30, 29, 9, 49, 43, 6, 19, 23, 18, 17, 10, 46, 26, 36, 3, 27, 34, 22, 37, 31, 5, 12, 20, 2, 42, 24, 11, 39, 38, 41, 1, 45, 50, 33, 16, 4, 48, 8, 28, 13, 44, 40, 14, 35, 21, 15, 47, 7]);
% time elapsed: 10.45 s
----------
%%%mzn-stat: initTime=0.012194283
%%%mzn-stat: objective=276
%%%mzn-stat: nodes=54831
%%%mzn-stat: restarts=52
%%%mzn-stat: peakDepth=574
%%%mzn-stat: solveTime=9.412988209
%%%mzn-stat: variables=1117
%%%mzn-stat: propagators=2038
%%%mzn-stat: failures=26916
%%%mzn-stat: propagations=6930636
%%%mzn-stat: nogoods=26916
%%%mzn-stat: AverageConflictSize=21.082032991529204
%%%mzn-stat: NumUnitNogoodsLearned=201
%%%mzn-stat: AverageLearnedNogoodLength=64.6285852281171
%%%mzn-stat: AverageBacktrackAmount=0
%%%mzn-stat: AverageLbd=10.471801159161837
%%%mzn-stat-end
maxleg = 276;
succ = array1d(1..50,[32, 25, 30, 29, 19, 49, 43, 6, 5, 23, 18, 17, 9, 46, 26, 36, 3, 27, 34, 22, 37, 31, 4, 12, 20, 2, 42, 24, 11, 39, 38, 41, 1, 45, 50, 33, 16, 10, 48, 8, 28, 13, 44, 40, 14, 35, 21, 15, 47, 7]);
% time elapsed: 10.70 s
----------
%%%mzn-stat: initTime=0.012194283
%%%mzn-stat: objective=273
%%%mzn-stat: nodes=55689
%%%mzn-stat: restarts=53
%%%mzn-stat: peakDepth=574
%%%mzn-stat: solveTime=9.576225808
%%%mzn-stat: variables=1117
%%%mzn-stat: propagators=2038
%%%mzn-stat: failures=27125
%%%mzn-stat: propagations=6987282
%%%mzn-stat: nogoods=27125
%%%mzn-stat: AverageConflictSize=21.226359447004608
%%%mzn-stat: NumUnitNogoodsLearned=201
%%%mzn-stat: AverageLearnedNogoodLength=64.97957603686636
%%%mzn-stat: AverageBacktrackAmount=0
%%%mzn-stat: AverageLbd=10.48036866359447
%%%mzn-stat-end
maxleg = 273;
succ = array1d(1..50,[32, 25, 30, 29, 19, 49, 43, 6, 46, 23, 18, 17, 9, 50, 26, 36, 3, 27, 34, 22, 37, 31, 4, 12, 20, 2, 42, 24, 11, 39, 38, 41, 1, 45, 5, 33, 16, 10, 48, 8, 28, 13, 44, 40, 14, 35, 21, 15, 47, 7]);
% time elapsed: 10.88 s
----------
%%%mzn-stat: initTime=0.012194283
%%%mzn-stat: objective=272
%%%mzn-stat: nodes=56273
%%%mzn-stat: restarts=54
%%%mzn-stat: peakDepth=574
%%%mzn-stat: solveTime=9.630393853
%%%mzn-stat: variables=1117
%%%mzn-stat: propagators=2038
%%%mzn-stat: failures=27180
%%%mzn-stat: propagations=7002610
%%%mzn-stat: nogoods=27180
%%%mzn-stat: AverageConflictSize=21.25290654893304
%%%mzn-stat: NumUnitNogoodsLearned=201
%%%mzn-stat: AverageLearnedNogoodLength=65.08914643119941
%%%mzn-stat: AverageBacktrackAmount=0
%%%mzn-stat: AverageLbd=10.486681383370126
%%%mzn-stat-end
maxleg = 272;
succ = array1d(1..50,[32, 25, 39, 29, 19, 49, 43, 6, 46, 23, 18, 17, 9, 50, 26, 36, 3, 27, 34, 22, 37, 31, 4, 30, 20, 2, 42, 24, 11, 12, 38, 41, 1, 45, 5, 33, 16, 10, 48, 8, 28, 13, 44, 40, 14, 35, 21, 15, 47, 7]);
% time elapsed: 10.93 s
----------
%%%mzn-stat: initTime=0.012194283
%%%mzn-stat: objective=271
%%%mzn-stat: nodes=56874
%%%mzn-stat: restarts=55
%%%mzn-stat: peakDepth=574
%%%mzn-stat: solveTime=9.671656149
%%%mzn-stat: variables=1117
%%%mzn-stat: propagators=2038
%%%mzn-stat: failures=27230
%%%mzn-stat: propagations=7016409
%%%mzn-stat: nogoods=27230
%%%mzn-stat: AverageConflictSize=21.253690782225487
%%%mzn-stat: NumUnitNogoodsLearned=201
%%%mzn-stat: AverageLearnedNogoodLength=65.09518912963642
%%%mzn-stat: AverageBacktrackAmount=0
%%%mzn-stat: AverageLbd=10.495813441057656
%%%mzn-stat-end
maxleg = 271;
succ = array1d(1..50,[32, 25, 39, 29, 19, 49, 43, 6, 46, 23, 18, 17, 9, 50, 26, 36, 3, 27, 34, 22, 37, 31, 4, 30, 20, 2, 42, 24, 11, 12, 38, 41, 1, 45, 5, 33, 16, 10, 48, 8, 28, 13, 44, 40, 14, 35, 21, 15, 47, 7]);
% time elapsed: 10.97 s
----------
%%%mzn-stat: initTime=0.012194283
%%%mzn-stat: objective=270
%%%mzn-stat: nodes=58746
%%%mzn-stat: restarts=56
%%%mzn-stat: peakDepth=574
%%%mzn-stat: solveTime=10.15446794
%%%mzn-stat: variables=1117
%%%mzn-stat: propagators=2038
%%%mzn-stat: failures=28232
%%%mzn-stat: propagations=7293086
%%%mzn-stat: nogoods=28232
%%%mzn-stat: AverageConflictSize=21.917434117313686
%%%mzn-stat: NumUnitNogoodsLearned=201
%%%mzn-stat: AverageLearnedNogoodLength=67.14129356758288
%%%mzn-stat: AverageBacktrackAmount=0
%%%mzn-stat: AverageLbd=10.497520544063475
%%%mzn-stat-end
maxleg = 270;
succ = array1d(1..50,[32, 25, 39, 29, 19, 49, 43, 6, 46, 23, 18, 17, 9, 50, 26, 36, 3, 27, 34, 22, 37, 31, 4, 30, 20, 2, 42, 24, 11, 12, 38, 41, 1, 45, 5, 33, 16, 10, 48, 8, 28, 13, 44, 40, 14, 35, 21, 15, 47, 7]);
% time elapsed: 11.46 s
----------
%%%mzn-stat: initTime=0.012194283
%%%mzn-stat: objective=269
%%%mzn-stat: nodes=59430
%%%mzn-stat: restarts=57
%%%mzn-stat: peakDepth=574
%%%mzn-stat: solveTime=10.220961798
%%%mzn-stat: variables=1117
%%%mzn-stat: propagators=2038
%%%mzn-stat: failures=28328
%%%mzn-stat: propagations=7324804
%%%mzn-stat: nogoods=28328
%%%mzn-stat: AverageConflictSize=21.945530923467945
%%%mzn-stat: NumUnitNogoodsLearned=201
%%%mzn-stat: AverageLearnedNogoodLength=67.2169937870658
%%%mzn-stat: AverageBacktrackAmount=0
%%%mzn-stat: AverageLbd=10.49731714205027
%%%mzn-stat-end
maxleg = 269;
succ = array1d(1..50,[32, 25, 39, 29, 19, 49, 43, 6, 46, 23, 18, 17, 9, 50, 26, 36, 3, 27, 34, 22, 37, 31, 4, 30, 20, 2, 42, 24, 11, 12, 38, 41, 1, 45, 5, 33, 16, 10, 48, 8, 28, 13, 44, 40, 14, 35, 21, 15, 47, 7]);
% time elapsed: 11.53 s
----------
%%%mzn-stat: initTime=0.012194283
%%%mzn-stat: objective=262
%%%mzn-stat: nodes=62029
%%%mzn-stat: restarts=60
%%%mzn-stat: peakDepth=574
%%%mzn-stat: solveTime=10.498759497
%%%mzn-stat: variables=1117
%%%mzn-stat: propagators=2038
%%%mzn-stat: failures=29605
%%%mzn-stat: propagations=7589836
%%%mzn-stat: nogoods=29605
%%%mzn-stat: AverageConflictSize=21.344806620503295
%%%mzn-stat: NumUnitNogoodsLearned=201
%%%mzn-stat: AverageLearnedNogoodLength=65.56426279344706
%%%mzn-stat: AverageBacktrackAmount=0
%%%mzn-stat: AverageLbd=10.414017902381355
%%%mzn-stat-end
maxleg = 262;
succ = array1d(1..50,[32, 25, 39, 29, 19, 49, 43, 6, 46, 23, 18, 17, 9, 50, 26, 36, 3, 27, 34, 22, 37, 31, 4, 30, 20, 2, 42, 24, 11, 12, 38, 41, 1, 35, 14, 33, 16, 10, 48, 8, 28, 13, 44, 40, 7, 5, 21, 15, 47, 45]);
% time elapsed: 11.81 s
----------
%%%mzn-stat: initTime=0.012194283
%%%mzn-stat: objective=256
%%%mzn-stat: nodes=63548
%%%mzn-stat: restarts=62
%%%mzn-stat: peakDepth=574
%%%mzn-stat: solveTime=10.609753602
%%%mzn-stat: variables=1117
%%%mzn-stat: propagators=2038
%%%mzn-stat: failures=29964
%%%mzn-stat: propagations=7680218
%%%mzn-stat: nogoods=29964
%%%mzn-stat: AverageConflictSize=21.225437191296223
%%%mzn-stat: NumUnitNogoodsLearned=201
%%%mzn-stat: AverageLearnedNogoodLength=65.3019289814444
%%%mzn-stat: AverageBacktrackAmount=0
%%%mzn-stat: AverageLbd=10.409257775997864
%%%mzn-stat-end
maxleg = 256;
succ = array1d(1..50,[32, 25, 39, 10, 19, 49, 43, 6, 46, 31, 18, 17, 9, 50, 26, 36, 3, 27, 34, 22, 37, 23, 4, 30, 20, 2, 42, 24, 11, 12, 38, 41, 1, 35, 14, 33, 16, 29, 48, 8, 28, 13, 44, 40, 7, 5, 21, 15, 47, 45]);
% time elapsed: 11.92 s
----------
%%%mzn-stat: initTime=0.012194283
%%%mzn-stat: objective=255
%%%mzn-stat: nodes=63974
%%%mzn-stat: restarts=63
%%%mzn-stat: peakDepth=574
%%%mzn-stat: solveTime=10.620957146
%%%mzn-stat: variables=1117
%%%mzn-stat: propagators=2038
%%%mzn-stat: failures=29966
%%%mzn-stat: propagations=7685381
%%%mzn-stat: nogoods=29966
%%%mzn-stat: AverageConflictSize=21.22478809317226
%%%mzn-stat: NumUnitNogoodsLearned=201
%%%mzn-stat: AverageLearnedNogoodLength=65.30020690115464
%%%mzn-stat: AverageBacktrackAmount=0
%%%mzn-stat: AverageLbd=10.408863378495628
%%%mzn-stat-end
maxleg = 255;
succ = array1d(1..50,[32, 20, 39, 38, 19, 49, 43, 6, 46, 31, 18, 17, 9, 50, 26, 36, 3, 27, 34, 22, 37, 10, 4, 30, 23, 2, 42, 24, 11, 12, 25, 41, 1, 35, 14, 33, 16, 29, 48, 8, 28, 13, 44, 40, 7, 5, 21, 15, 47, 45]);
% time elapsed: 11.94 s
----------
%%%mzn-stat: initTime=0.012194283
%%%mzn-stat: objective=254
%%%mzn-stat: nodes=64622
%%%mzn-stat: restarts=64
%%%mzn-stat: peakDepth=574
%%%mzn-stat: solveTime=10.721044497
%%%mzn-stat: variables=1117
%%%mzn-stat: propagators=2038
%%%mzn-stat: failures=30123
%%%mzn-stat: propagations=7717856
%%%mzn-stat: nogoods=30123
%%%mzn-stat: AverageConflictSize=21.359725126979384
%%%mzn-stat: NumUnitNogoodsLearned=201
%%%mzn-stat: AverageLearnedNogoodLength=65.68774690435879
%%%mzn-stat: AverageBacktrackAmount=0
%%%mzn-stat: AverageLbd=10.408790625103741
%%%mzn-stat-end
maxleg = 254;
succ = array1d(1..50,[32, 20, 39, 38, 19, 49, 43, 6, 46, 31, 18, 17, 9, 50, 26, 36, 3, 27, 34, 22, 37, 10, 4, 30, 23, 2, 42, 24, 11, 12, 25, 41, 1, 35, 14, 33, 16, 29, 48, 8, 28, 13, 44, 40, 7, 5, 21, 15, 47, 45]);
% time elapsed: 12.04 s
----------
%%%mzn-stat: initTime=0.012194283
%%%mzn-stat: objective=253
%%%mzn-stat: nodes=65544
%%%mzn-stat: restarts=65
%%%mzn-stat: peakDepth=574
%%%mzn-stat: solveTime=10.82886039
%%%mzn-stat: variables=1117
%%%mzn-stat: propagators=2038
%%%mzn-stat: failures=30300
%%%mzn-stat: propagations=7766406
%%%mzn-stat: nogoods=30300
%%%mzn-stat: AverageConflictSize=21.437194719471947
%%%mzn-stat: NumUnitNogoodsLearned=201
%%%mzn-stat: AverageLearnedNogoodLength=66.00633663366337
%%%mzn-stat: AverageBacktrackAmount=0
%%%mzn-stat: AverageLbd=10.413762376237624
%%%mzn-stat-end
maxleg = 253;
succ = array1d(1..50,[32, 20, 39, 38, 19, 49, 43, 6, 46, 31, 18, 17, 9, 50, 26, 36, 3, 27, 34, 22, 37, 10, 4, 30, 23, 2, 42, 24, 11, 12, 25, 41, 1, 35, 14, 33, 16, 29, 48, 8, 28, 13, 44, 40, 7, 5, 21, 15, 47, 45]);
% time elapsed: 12.15 s
----------
%%%mzn-stat: initTime=0.012194283
%%%mzn-stat: objective=252
%%%mzn-stat: nodes=66379
%%%mzn-stat: restarts=66
%%%mzn-stat: peakDepth=574
%%%mzn-stat: solveTime=10.976337914
%%%mzn-stat: variables=1117
%%%mzn-stat: propagators=2038
%%%mzn-stat: failures=30542
%%%mzn-stat: propagations=7832979
%%%mzn-stat: nogoods=30542
%%%mzn-stat: AverageConflictSize=21.634667015912513
%%%mzn-stat: NumUnitNogoodsLearned=201
%%%mzn-stat: AverageLearnedNogoodLength=66.6963525636828
%%%mzn-stat: AverageBacktrackAmount=0
%%%mzn-stat: AverageLbd=10.419356951083753
%%%mzn-stat-end
maxleg = 252;
succ = array1d(1..50,[32, 20, 39, 38, 19, 49, 43, 6, 46, 31, 18, 17, 9, 50, 26, 36, 3, 27, 34, 22, 37, 10, 4, 30, 23, 2, 42, 24, 11, 12, 25, 41, 1, 35, 14, 33, 16, 29, 48, 8, 28, 13, 44, 40, 7, 5, 21, 15, 47, 45]);
% time elapsed: 12.30 s
----------
%%%mzn-stat: initTime=0.012194283
%%%mzn-stat: objective=251
%%%mzn-stat: nodes=66951
%%%mzn-stat: restarts=67
%%%mzn-stat: peakDepth=574
%%%mzn-stat: solveTime=11.017669362
%%%mzn-stat: variables=1117
%%%mzn-stat: propagators=2038
%%%mzn-stat: failures=30595
%%%mzn-stat: propagations=7851147
%%%mzn-stat: nogoods=30595
%%%mzn-stat: AverageConflictSize=21.661578689328323
%%%mzn-stat: NumUnitNogoodsLearned=201
%%%mzn-stat: AverageLearnedNogoodLength=66.77581304134662
%%%mzn-stat: AverageBacktrackAmount=0
%%%mzn-stat: AverageLbd=10.430397123713025
%%%mzn-stat-end
maxleg = 251;
succ = array1d(1..50,[32, 20, 39, 38, 19, 49, 43, 6, 46, 31, 18, 17, 9, 50, 26, 36, 3, 27, 34, 22, 37, 10, 4, 30, 23, 2, 42, 24, 11, 12, 25, 41, 1, 35, 14, 33, 16, 29, 48, 8, 28, 13, 44, 40, 7, 5, 21, 15, 47, 45]);
% time elapsed: 12.35 s
----------
%%%mzn-stat: initTime=0.012194283
%%%mzn-stat: objective=250
%%%mzn-stat: nodes=67465
%%%mzn-stat: restarts=68
%%%mzn-stat: peakDepth=574
%%%mzn-stat: solveTime=11.067314507
%%%mzn-stat: variables=1117
%%%mzn-stat: propagators=2038
%%%mzn-stat: failures=30658
%%%mzn-stat: propagations=7878470
%%%mzn-stat: nogoods=30658
%%%mzn-stat: AverageConflictSize=21.718376932611392
%%%mzn-stat: NumUnitNogoodsLearned=201
%%%mzn-stat: AverageLearnedNogoodLength=66.96839324156826
%%%mzn-stat: AverageBacktrackAmount=0
%%%mzn-stat: AverageLbd=10.435253441189902
%%%mzn-stat-end
maxleg = 250;
succ = array1d(1..50,[32, 20, 39, 38, 19, 49, 43, 6, 46, 31, 18, 17, 9, 50, 26, 36, 3, 27, 34, 22, 37, 10, 4, 30, 23, 2, 42, 24, 11, 12, 25, 41, 1, 35, 14, 33, 16, 29, 48, 8, 28, 13, 44, 40, 7, 5, 21, 15, 47, 45]);
% time elapsed: 12.40 s
----------
%%%mzn-stat: initTime=0.012194283
%%%mzn-stat: objective=249
%%%mzn-stat: nodes=68168
%%%mzn-stat: restarts=69
%%%mzn-stat: peakDepth=574
%%%mzn-stat: solveTime=11.172990137
%%%mzn-stat: variables=1117
%%%mzn-stat: propagators=2038
%%%mzn-stat: failures=30811
%%%mzn-stat: propagations=7931815
%%%mzn-stat: nogoods=30811
%%%mzn-stat: AverageConflictSize=21.87997792996008
%%%mzn-stat: NumUnitNogoodsLearned=201
%%%mzn-stat: AverageLearnedNogoodLength=67.41452727921846
%%%mzn-stat: AverageBacktrackAmount=0
%%%mzn-stat: AverageLbd=10.44068676771283
%%%mzn-stat-end
maxleg = 249;
succ = array1d(1..50,[32, 20, 39, 38, 19, 49, 43, 6, 46, 31, 18, 17, 9, 50, 26, 36, 3, 27, 34, 22, 37, 10, 4, 30, 23, 2, 42, 24, 11, 12, 25, 41, 1, 35, 14, 33, 16, 29, 48, 8, 28, 13, 44, 40, 7, 5, 21, 15, 47, 45]);
% time elapsed: 12.51 s
----------
%%%mzn-stat: initTime=0.012194283
%%%mzn-stat: objective=248
%%%mzn-stat: nodes=69361
%%%mzn-stat: restarts=70
%%%mzn-stat: peakDepth=574
%%%mzn-stat: solveTime=11.451349619
%%%mzn-stat: variables=1117
%%%mzn-stat: propagators=2038
%%%mzn-stat: failures=31273
%%%mzn-stat: propagations=8040570
%%%mzn-stat: nogoods=31273
%%%mzn-stat: AverageConflictSize=22.256579157739903
%%%mzn-stat: NumUnitNogoodsLearned=201
%%%mzn-stat: AverageLearnedNogoodLength=68.51044031592748
%%%mzn-stat: AverageBacktrackAmount=0
%%%mzn-stat: AverageLbd=10.451891407923767
%%%mzn-stat-end
maxleg = 248;
succ = array1d(1..50,[32, 20, 39, 38, 19, 49, 43, 6, 46, 31, 18, 17, 9, 50, 26, 36, 3, 27, 34, 22, 37, 10, 4, 30, 23, 2, 42, 24, 11, 12, 25, 41, 1, 35, 14, 33, 16, 29, 48, 8, 28, 13, 44, 40, 7, 5, 21, 15, 47, 45]);
% time elapsed: 12.79 s
----------
%%%mzn-stat: initTime=0.012194283
%%%mzn-stat: objective=247
%%%mzn-stat: nodes=70386
%%%mzn-stat: restarts=71
%%%mzn-stat: peakDepth=574
%%%mzn-stat: solveTime=11.728662472
%%%mzn-stat: variables=1117
%%%mzn-stat: propagators=2038
%%%mzn-stat: failures=31635
%%%mzn-stat: propagations=8133455
%%%mzn-stat: nogoods=31635
%%%mzn-stat: AverageConflictSize=22.86559190769717
%%%mzn-stat: NumUnitNogoodsLearned=201
%%%mzn-stat: AverageLearnedNogoodLength=69.7974711553659
%%%mzn-stat: AverageBacktrackAmount=0
%%%mzn-stat: AverageLbd=10.454275327959538
%%%mzn-stat-end
maxleg = 247;
succ = array1d(1..50,[32, 20, 39, 38, 19, 49, 43, 6, 46, 31, 18, 17, 9, 50, 26, 36, 3, 27, 34, 22, 37, 10, 4, 30, 23, 2, 42, 24, 11, 12, 25, 41, 1, 35, 14, 33, 16, 29, 48, 8, 28, 13, 44, 40, 7, 5, 21, 15, 47, 45]);
% time elapsed: 13.07 s
----------
%%%mzn-stat: initTime=0.012194283
%%%mzn-stat: objective=246
%%%mzn-stat: nodes=71062
%%%mzn-stat: restarts=72
%%%mzn-stat: peakDepth=574
%%%mzn-stat: solveTime=11.86253678
%%%mzn-stat: variables=1117
%%%mzn-stat: propagators=2038
%%%mzn-stat: failures=31800
%%%mzn-stat: propagations=8182094
%%%mzn-stat: nogoods=31800
%%%mzn-stat: AverageConflictSize=23.113522012578617
%%%mzn-stat: NumUnitNogoodsLearned=201
%%%mzn-stat: AverageLearnedNogoodLength=70.21814465408805
%%%mzn-stat: AverageBacktrackAmount=0
%%%mzn-stat: AverageLbd=10.459716981132075
%%%mzn-stat-end
maxleg = 246;
succ = array1d(1..50,[32, 20, 39, 38, 19, 49, 43, 6, 46, 31, 18, 17, 9, 50, 26, 36, 3, 27, 34, 22, 37, 10, 4, 30, 23, 2, 42, 24, 11, 12, 25, 41, 1, 35, 14, 33, 16, 29, 48, 8, 28, 13, 44, 40, 7, 5, 21, 15, 47, 45]);
% time elapsed: 13.21 s
----------
%%%mzn-stat: initTime=0.012194283
%%%mzn-stat: objective=242
%%%mzn-stat: nodes=71873
%%%mzn-stat: restarts=74
%%%mzn-stat: peakDepth=574
%%%mzn-stat: solveTime=11.937461474
%%%mzn-stat: variables=1117
%%%mzn-stat: propagators=2038
%%%mzn-stat: failures=31914
%%%mzn-stat: propagations=8223531
%%%mzn-stat: nogoods=31914
%%%mzn-stat: AverageConflictSize=23.240114056526917
%%%mzn-stat: NumUnitNogoodsLearned=201
%%%mzn-stat: AverageLearnedNogoodLength=70.35294854922604
%%%mzn-stat: AverageBacktrackAmount=0
%%%mzn-stat: AverageLbd=10.478097386726828
%%%mzn-stat-end
maxleg = 242;
succ = array1d(1..50,[32, 20, 39, 38, 19, 49, 43, 6, 34, 31, 18, 17, 9, 50, 26, 36, 3, 27, 35, 22, 37, 10, 4, 30, 23, 2, 42, 24, 11, 12, 25, 41, 1, 46, 14, 33, 16, 29, 48, 8, 28, 13, 44, 40, 7, 5, 21, 15, 47, 45]);
% time elapsed: 13.29 s
----------
%%%mzn-stat: initTime=0.012194283
%%%mzn-stat: objective=241
%%%mzn-stat: nodes=73564
%%%mzn-stat: restarts=76
%%%mzn-stat: peakDepth=574
%%%mzn-stat: solveTime=12.166945184
%%%mzn-stat: variables=1117
%%%mzn-stat: propagators=2038
%%%mzn-stat: failures=32862
%%%mzn-stat: propagations=8395993
%%%mzn-stat: nogoods=32862
%%%mzn-stat: AverageConflictSize=22.97742072910961
%%%mzn-stat: NumUnitNogoodsLearned=201
%%%mzn-stat: AverageLearnedNogoodLength=69.46412269490597
%%%mzn-stat: AverageBacktrackAmount=0
%%%mzn-stat: AverageLbd=10.464153125190188
%%%mzn-stat-end
maxleg = 241;
succ = array1d(1..50,[32, 25, 39, 38, 19, 49, 43, 6, 34, 31, 18, 17, 9, 50, 26, 36, 3, 27, 35, 22, 37, 10, 4, 30, 20, 2, 42, 24, 11, 12, 23, 41, 1, 46, 14, 33, 16, 29, 48, 8, 28, 13, 44, 40, 7, 5, 21, 15, 47, 45]);
% time elapsed: 13.52 s
----------
%%%mzn-stat: initTime=0.012194283
%%%mzn-stat: objective=240
%%%mzn-stat: nodes=74435
%%%mzn-stat: restarts=77
%%%mzn-stat: peakDepth=574
%%%mzn-stat: solveTime=12.418052784
%%%mzn-stat: variables=1117
%%%mzn-stat: propagators=2038
%%%mzn-stat: failures=33183
%%%mzn-stat: propagations=8480495
%%%mzn-stat: nogoods=33183
%%%mzn-stat: AverageConflictSize=23.616852002531417
%%%mzn-stat: NumUnitNogoodsLearned=201
%%%mzn-stat: AverageLearnedNogoodLength=70.47054214507429
%%%mzn-stat: AverageBacktrackAmount=0
%%%mzn-stat: AverageLbd=10.466021758129163
%%%mzn-stat-end
maxleg = 240;
succ = array1d(1..50,[32, 25, 39, 38, 19, 49, 43, 6, 34, 31, 18, 17, 9, 50, 26, 36, 3, 27, 35, 22, 37, 10, 4, 30, 20, 2, 42, 24, 11, 12, 23, 41, 1, 46, 14, 33, 16, 29, 48, 8, 28, 13, 44, 40, 7, 5, 21, 15, 47, 45]);
% time elapsed: 13.78 s
----------
%%%mzn-stat: initTime=0.012194283
%%%mzn-stat: objective=239
%%%mzn-stat: nodes=76074
%%%mzn-stat: restarts=81
%%%mzn-stat: peakDepth=574
%%%mzn-stat: solveTime=12.835223271
%%%mzn-stat: variables=1117
%%%mzn-stat: propagators=2038
%%%mzn-stat: failures=34002
%%%mzn-stat: propagations=8660017
%%%mzn-stat: nogoods=34002
%%%mzn-stat: AverageConflictSize=24.131227574848538
%%%mzn-stat: NumUnitNogoodsLearned=201
%%%mzn-stat: AverageLearnedNogoodLength=71.33368625374978
%%%mzn-stat: AverageBacktrackAmount=0
%%%mzn-stat: AverageLbd=10.504940885830246
%%%mzn-stat-end
maxleg = 239;
succ = array1d(1..50,[32, 25, 39, 38, 19, 49, 43, 6, 34, 4, 18, 17, 23, 50, 26, 36, 3, 27, 35, 22, 37, 10, 31, 30, 20, 2, 42, 24, 11, 12, 9, 41, 1, 46, 14, 33, 16, 29, 48, 8, 28, 13, 44, 40, 7, 5, 21, 15, 47, 45]);
% time elapsed: 14.20 s
----------
=====ERROR=====
% time elapsed: 1273.33 s
